Version identifier: 12.10.0.0 | 2019-11-26 | 843d4de
CPXPARAM_WorkMem                                 28672
Tried aggregator 2 times.
Aggregator did 75 substitutions.
Reduced MIP has 243 rows, 270 columns, and 1032 nonzeros.
Reduced MIP has 270 binaries, 0 generals, 0 SOSs, and 0 indicators.
Presolve time = 0,00 sec. (1,05 ticks)
Found incumbent of value 225,000000 after 0,00 sec. (1,62 ticks)
Probing time = 0,00 sec. (0,45 ticks)
Tried aggregator 1 time.
Detecting symmetries...
MIP Presolve eliminated 78 rows and 0 columns.
MIP Presolve added 156 rows and 0 columns.
Reduced MIP has 321 rows, 270 columns, and 1110 nonzeros.
Reduced MIP has 270 binaries, 0 generals, 0 SOSs, and 0 indicators.
Presolve time = 0,00 sec. (1,42 ticks)
Probing time = 0,00 sec. (0,43 ticks)
Clique table members: 732.
MIP emphasis: balance optimality and feasibility.
MIP search method: dynamic search.
Parallel mode: deterministic, using up to 16 threads.
Root relaxation solution time = 0,00 sec. (1,58 ticks)

        Nodes                                         Cuts/
   Node  Left     Objective  IInf  Best Integer    Best Bound    ItCnt     Gap

*     0+    0                          225,0000        0,0000           100,00%
*     0+    0                          149,0000        0,0000           100,00%
      0     0       75,0000   270      149,0000       75,0000      129   49,66%
      0     0       76,7934   270      149,0000      Cuts: 14      189   48,46%
      0     0       77,8535   270      149,0000      Cuts: 10      210   47,75%
*     0+    0                          147,0000       77,8535            47,04%
      0     0       78,3275   270      147,0000       Cuts: 8      227   46,72%
      0     0       78,5723   270      147,0000       Cuts: 9      245   46,55%
      0     0       78,6364   270      147,0000   ZeroHalf: 9      258   46,51%
      0     0       78,6843   270      147,0000   ZeroHalf: 3      264   46,47%
      0     0       78,7507   270      147,0000   ZeroHalf: 2      285   46,43%
      0     0       78,7905   270      147,0000       Cuts: 5      296   46,40%
      0     0       78,8083   270      147,0000   ZeroHalf: 7      305   46,39%
      0     0       78,8153   270      147,0000   ZeroHalf: 1      311   46,38%
      0     0       78,8239   270      147,0000   ZeroHalf: 1      313   46,38%
*     0+    0                          137,0000       78,8239            42,46%
      0     2       78,8239   270      137,0000       85,0323      313   37,93%
Elapsed time = 0,14 sec. (78,90 ticks, tree = 0,02 MB, solutions = 4)
   1600   590      109,1049   196      137,0000      101,6825     9731   25,78%

Performing restart 1

Repeating presolve.
Tried aggregator 1 time.
Reduced MIP has 321 rows, 270 columns, and 1110 nonzeros.
Reduced MIP has 270 binaries, 0 generals, 0 SOSs, and 0 indicators.
Presolve time = 0,00 sec. (0,72 ticks)
Tried aggregator 1 time.
Reduced MIP has 321 rows, 270 columns, and 1110 nonzeros.
Reduced MIP has 270 binaries, 0 generals, 0 SOSs, and 0 indicators.
Presolve time = 0,00 sec. (0,97 ticks)
Represolve time = 0,01 sec. (6,16 ticks)
   4708     0       80,3511   270      137,0000      Cuts: 12    94277   14,67%
   4708     0       80,7455   270      137,0000       Cuts: 9    94321   14,67%
   4708     0       81,1053   270      137,0000      Cuts: 12    94360   14,67%
   4708     0       81,1866   270      137,0000       Cuts: 7    94398   14,67%
   4708     0       81,7016   270      137,0000      Cuts: 14    94460   14,67%
   4708     2       81,7016   267      137,0000      116,9039    94460   14,67%
   6000   634        cutoff            137,0000      116,9039   117763   14,67%
   8659  2065      135,5250    96      137,0000      116,9039   193962   14,67%
  12550  3348      133,3542   160      137,0000      124,3998   307168    9,20%
  17429  2375        cutoff            137,0000      132,3704   416216    3,38%

Cover cuts applied:  499
Zero-half cuts applied:  5
Lift and project cuts applied:  2
Gomory fractional cuts applied:  26

Root node processing (before b&c):
  Real time             =    0,13 sec. (78,60 ticks)
Parallel b&c, 16 threads:
  Real time             =    2,88 sec. (1861,05 ticks)
  Sync time (average)   =    0,95 sec.
  Wait time (average)   =    0,00 sec.
                          ------------
Total (root+branch&cut) =    3,01 sec. (1939,65 ticks)
